dist/model.sol
# Objective value = 2.75
x_1_1 1
q_1_1 0
x_1_2 1
q_1_2 0
x_2_1 0
q_2_1 1
x_2_2 3.5
q_2_2 0
x_3_1 2.75
q_3_1 0
